%%%mzn-stat: initTime=0.006952736
%%%mzn-stat: objective=809
%%%mzn-stat: nodes=50642
%%%mzn-stat: restarts=85
%%%mzn-stat: peakDepth=341
%%%mzn-stat: solveTime=6.449913562
%%%mzn-stat: variables=673
%%%mzn-stat: propagators=1678
%%%mzn-stat: failures=35984
%%%mzn-stat: propagations=9091143
%%%mzn-stat: nogoods=35984
%%%mzn-stat: AverageConflictSize=10.400622498888394
%%%mzn-stat: NumUnitNogoodsLearned=202
%%%mzn-stat: AverageLearnedNogoodLength=24.567502223210315
%%%mzn-stat: AverageBacktrackAmount=0
%%%mzn-stat: AverageLbd=11.821893063583815
%%%mzn-stat-end
maxleg = 809;
succ = array1d(1..50,[19, 13, 50, 22, 39, 31, 14, 38, 29, 28, 26, 48, 47, 49, 10, 18, 40, 44, 27, 36, 33, 9, 7, 15, 4, 37, 12, 17, 2, 35, 1, 24, 20, 46, 34, 45, 16, 32, 25, 43, 11, 3, 21, 5, 30, 41, 42, 23, 8, 6]);
% time elapsed: 6.77 s
----------
%%%mzn-stat: initTime=0.006952736
%%%mzn-stat: objective=685
%%%mzn-stat: nodes=67884
%%%mzn-stat: restarts=106
%%%mzn-stat: peakDepth=371
%%%mzn-stat: solveTime=9.015494422
%%%mzn-stat: variables=673
%%%mzn-stat: propagators=1678
%%%mzn-stat: failures=47916
%%%mzn-stat: propagations=11875923
%%%mzn-stat: nogoods=47916
%%%mzn-stat: AverageConflictSize=11.008660990065948
%%%mzn-stat: NumUnitNogoodsLearned=205
%%%mzn-stat: AverageLearnedNogoodLength=25.28163870106019
%%%mzn-stat: AverageBacktrackAmount=0
%%%mzn-stat: AverageLbd=11.359399782953503
%%%mzn-stat-end
maxleg = 685;
succ = array1d(1..50,[19, 13, 50, 22, 39, 31, 14, 38, 29, 28, 26, 48, 47, 49, 10, 18, 40, 44, 27, 36, 33, 9, 7, 17, 4, 37, 12, 34, 2, 35, 1, 24, 20, 46, 11, 45, 16, 32, 25, 43, 30, 3, 21, 5, 15, 41, 42, 23, 8, 6]);
% time elapsed: 9.31 s
----------
%%%mzn-stat: initTime=0.006952736
%%%mzn-stat: objective=635
%%%mzn-stat: nodes=69934
%%%mzn-stat: restarts=108
%%%mzn-stat: peakDepth=371
%%%mzn-stat: solveTime=9.333201312
%%%mzn-stat: variables=673
%%%mzn-stat: propagators=1678
%%%mzn-stat: failures=49095
%%%mzn-stat: propagations=12112229
%%%mzn-stat: nogoods=49095
%%%mzn-stat: AverageConflictSize=11.116814339545778
%%%mzn-stat: NumUnitNogoodsLearned=205
%%%mzn-stat: AverageLearnedNogoodLength=25.501354516753235
%%%mzn-stat: AverageBacktrackAmount=0
%%%mzn-stat: AverageLbd=11.32046033200937
%%%mzn-stat-end
maxleg = 635;
succ = array1d(1..50,[19, 13, 50, 22, 39, 31, 14, 38, 29, 28, 26, 48, 47, 49, 34, 18, 40, 44, 27, 36, 33, 9, 7, 17, 4, 37, 12, 15, 2, 35, 1, 24, 20, 46, 11, 45, 16, 32, 25, 43, 30, 3, 21, 5, 10, 41, 42, 23, 8, 6]);
% time elapsed: 9.63 s
----------
%%%mzn-stat: initTime=0.006952736
%%%mzn-stat: objective=437
%%%mzn-stat: nodes=103838
%%%mzn-stat: restarts=175
%%%mzn-stat: peakDepth=371
%%%mzn-stat: solveTime=14.257187918
%%%mzn-stat: variables=673
%%%mzn-stat: propagators=1678
%%%mzn-stat: failures=72201
%%%mzn-stat: propagations=18219101
%%%mzn-stat: nogoods=72201
%%%mzn-stat: AverageConflictSize=11.34834697580366
%%%mzn-stat: NumUnitNogoodsLearned=205
%%%mzn-stat: AverageLearnedNogoodLength=25.53262420188086
%%%mzn-stat: AverageBacktrackAmount=0
%%%mzn-stat: AverageLbd=11.297059597512499
%%%mzn-stat-end
maxleg = 437;
succ = array1d(1..50,[19, 13, 50, 22, 39, 47, 38, 6, 34, 28, 26, 9, 48, 49, 10, 18, 40, 44, 27, 17, 33, 29, 7, 45, 4, 37, 12, 36, 2, 35, 1, 24, 20, 46, 11, 21, 16, 32, 25, 43, 30, 3, 14, 5, 15, 41, 42, 23, 8, 31]);
% time elapsed: 14.56 s
----------
%%%mzn-stat: initTime=0.006952736
%%%mzn-stat: objective=437
%%%mzn-stat: nodes=6559276
%%%mzn-stat: restarts=16699
%%%mzn-stat: peakDepth=371
%%%mzn-stat: solveTime=1799.757237526
%%%mzn-stat: variables=673
%%%mzn-stat: propagators=1678
%%%mzn-stat: failures=5430276
%%%mzn-stat: propagations=1504083507
%%%mzn-stat: nogoods=5430276
%%%mzn-stat: AverageConflictSize=24.853316479678014
%%%mzn-stat: NumUnitNogoodsLearned=205
%%%mzn-stat: AverageLearnedNogoodLength=33.0440147056982
%%%mzn-stat: AverageBacktrackAmount=0
%%%mzn-stat: AverageLbd=14.638898096524008
%%%mzn-stat-end
